num_features = 13;
num_usage_limits = 2;
num_plans = 4;
num_addons = 0;

features = ["privateProjects","realTimeCollaboration","templates","latexEditor","latexCompilation","realTimeTrackChanges","fullDocumentHistory","advancedReferenceSearch","referenceManagerSync","dropboxIntegration","gitIntegration","githubIntegration","prioritySupport"];
usage_limits = ["maxCollaboratorsPerProject","compileTimeoutLimit"];
plans = ["FREE","PERSONAL","COLLABORATOR","PROFESSIONAL"];
addons = [];

plans_prices = [0,10,15,30];
addons_prices = [];

linked_features = array2d(USAGE_LIMITS, FEATURES, [
    % maxCollaboratorsPerProject
    0,1,0,0,0,0,0,0,0,0,0,0,0,
    % compileTimeoutLimit
    0,0,0,0,1,0,0,0,0,0,0,0,0
]);

plans_features = array2d(PLANS, FEATURES, [
    % FREE
    1,1,1,1,1,0,0,0,0,0,0,0,0,
    % PERSONAL
    1,1,1,1,1,0,1,1,1,1,1,1,1,
    % COLLABORATOR
    1,1,1,1,1,1,1,1,1,1,1,1,1,
    % PROFESSIONAL
    1,1,1,1,1,1,1,1,1,1,1,1,1
]);
plans_usage_limits = array2d(PLANS, USAGE_LIMITS, [
    % FREE
    1,1,
    % PERSONAL
    1,4,
    % COLLABORATOR
    10,4,
    % PROFESSIONAL
    Infinity,4
]);

addons_features = array2d(ADDONS, FEATURES, [
]);
addons_usage_limits = array2d(ADDONS, USAGE_LIMITS, [
]);
addons_usage_limits_extensions = array2d(ADDONS, USAGE_LIMITS, [
]);
addons_available_for = array2d(ADDONS, PLANS, [
]);
addons_depends_on = array2d(ADDONS, ADDONS, [
]);
